S = 5;
start = [|0,0,12,0,18,0,0,13,0,0,0,0,0,19,0,0,0,2,0,0,7,0,0,3,1|
7,1,20,24,0,0,0,0,0,0,0,0,0,0,2,12,15,0,0,19,0,0,0,0,0|
0,0,0,8,0,0,15,0,0,19,0,3,0,11,0,0,0,14,21,0,0,0,0,25,17|
0,0,0,21,0,0,0,7,9,0,18,0,0,1,0,0,0,0,0,0,0,0,0,0,4|
0,3,0,0,0,0,1,18,0,0,0,0,21,0,0,0,0,0,0,0,12,0,0,0,0|
16,21,0,0,0,0,0,25,24,0,0,12,5,0,0,0,0,1,0,0,0,0,15,0,6|
0,0,0,9,0,0,0,0,0,0,0,0,0,0,0,0,0,0,0,0,0,13,0,0,0|
0,0,0,0,20,0,0,0,14,0,0,0,0,0,0,0,12,8,0,10,0,0,0,0,0|
0,0,0,0,0,0,0,0,0,0,0,0,0,0,0,0,2,24,0,0,0,0,0,0,0|
0,0,0,0,0,22,3,9,0,0,0,21,0,0,14,13,6,0,0,0,17,0,0,0,20|
0,0,0,6,0,0,0,22,12,0,20,19,0,15,0,25,0,4,0,17,13,0,2,0,0|
0,0,0,0,0,5,0,0,0,0,25,0,0,0,13,0,0,20,0,0,11,0,0,22,0|
0,0,0,0,0,0,0,0,0,0,0,23,3,10,0,0,0,0,1,0,0,0,0,0,25|
11,7,0,0,19,0,0,0,2,0,0,24,0,0,22,9,0,16,0,5,0,20,0,14,15|
0,0,25,0,0,0,0,0,19,0,0,0,0,0,0,0,0,0,0,0,16,0,7,4,21|
0,0,0,0,8,0,6,23,0,0,0,18,0,0,5,0,0,0,0,0,0,2,0,0,0|
2,0,0,0,1,8,0,0,0,0,3,0,0,22,0,0,0,0,23,0,0,7,0,0,0|
0,6,5,0,22,19,0,0,0,17,0,0,2,0,25,0,0,9,0,13,0,14,12,0,0|
0,23,0,0,0,0,0,1,0,0,6,0,8,0,0,0,0,0,0,0,0,0,0,0,10|
0,0,0,0,14,0,22,11,0,0,13,0,0,7,0,1,8,0,6,24,25,0,0,0,0|
18,14,0,0,2,13,20,0,0,0,0,0,16,24,0,0,22,0,12,0,0,0,0,9,0|
0,10,0,20,0,0,0,0,0,18,0,0,0,0,21,16,0,0,0,4,0,17,0,0,0|
0,11,0,17,25,7,0,0,0,22,23,6,0,0,0,0,0,0,5,0,0,0,0,0,0|
0,0,4,0,0,0,0,19,11,0,0,0,0,0,0,0,20,17,0,0,18,16,0,0,0|
0,0,0,22,16,0,0,0,0,0,0,20,0,0,19,24,9,0,0,14,0,0,25,0,11|];